# Solution for model r5_t36_m3_5 Batch Number: 8
# Finished Task: 33 / 36
# Makespan: 715.0, Total Distance: 839.0, Total Time: 1.6870
# R O S F Batch
0 0 18 0.0 0.0 -1
1 1 26 0.0 0.0 -1
2 2 8 0.0 0.0 -1
3 3 34 0.0 0.0 -1
4 4 5 0.0 0.0 -1
5 4 33 266.0 297.0 0
6 2 25 618.0 641.0 7
7 4 29 571.0 609.0 6
8 2 28 169.0 195.0 0
9 0 37 417.0 437.0 3
10 4 20 366.0 399.0 1
11 1 14 497.0 535.0 6
12 0 9 354.0 379.0 2
13 2 24 394.0 427.0 2
14 1 30 582.0 609.0 6
15 1 39 279.0 318.0 1
16 -1 -1 -1.0 -1.0 6
17 1 36 127.0 150.0 0
18 0 12 301.0 323.0 0
19 3 31 311.0 337.0 0
20 4 23 399.0 426.0 3
21 1 11 457.0 482.0 5
22 2 13 351.0 379.0 2
23 4 7 452.0 481.0 6
24 2 32 451.0 489.0 5
25 2 -1 689.0 715.0 7
26 1 17 90.0 116.0 0
27 3 -1 572.0 595.0 5
28 2 22 227.0 252.0 0
29 4 -1 619.0 641.0 7
30 1 -1 643.0 681.0 7
31 3 40 427.0 457.0 4
32 2 6 500.0 527.0 6
33 4 10 318.0 348.0 1
34 3 19 226.0 262.0 0
35 -1 -1 -1.0 -1.0 6
36 1 15 208.0 246.0 0
37 0 -1 681.0 715.0 7
38 -1 -1 -1.0 -1.0 4
39 1 21 337.0 358.0 3
40 3 27 481.0 518.0 4
